# C

&CONTROL
  title = 'C',
  calculation = 'scf',
  outdir = '.',
  pseudo_dir = '.'
/
&SYSTEM
  ibrav = 0,
  nat   = 4,
  ntyp  = 1,
! c2x default
  ecutwfc = 10
/
&ELECTRONS
/

CELL_PARAMETERS angstrom
  1.2336456  -2.1367369   0.0000000
  1.2336456   2.1367369   0.0000000
  0.0000000   0.0000000   7.8030730

ATOMIC_SPECIES
  C    1.0   C.UPF

ATOMIC_POSITIONS crystal
  C  -0.000000000  0.000000000  0.250000000
  C  -0.000000000  0.000000000  0.750000000
  C   0.333333333  0.666666667  0.250000000
  C   0.666666667  0.333333333  0.750000000
