C 
 1.0000000000000000
     1.2336456308015413   -2.1367369110836267    0.0000000000000000
     1.2336456308015413    2.1367369110836267    0.0000000000000000
     0.0000000000000000    0.0000000000000000    7.8030729999999995
 C  
   4
Direct
 -0.0000000000000000  0.0000000000000000  0.2500000000000000
 -0.0000000000000000  0.0000000000000000  0.7500000000000001
  0.3333333333333334  0.6666666666666667  0.2500000000000000
  0.6666666666666667  0.3333333333333334  0.7500000000000001
