# Ce O

&CONTROL
  title = 'Ce O',
  calculation = 'scf',
  outdir = '.',
  pseudo_dir = '.'
/
&SYSTEM
  ibrav = 0,
  nat   = 12,
  ntyp  = 2,
! c2x default
  ecutwfc = 10
/
&ELECTRONS
/

CELL_PARAMETERS angstrom
  5.4674503   0.0000000   0.0000000
 -0.0000000   5.4674503   0.0000000
  0.0000000   0.0000000   5.4674503

ATOMIC_SPECIES
  Ce   1.0   Ce.UPF
  O    1.0   O.UPF

ATOMIC_POSITIONS crystal
 Ce   0.000000000  0.000000000  0.000000000
 Ce  -0.000000000  0.500000000  0.500000000
 Ce   0.500000000  0.000000000  0.500000000
 Ce   0.500000000  0.500000000  0.000000000
  O   0.250000000  0.750000000  0.750000000
  O   0.750000000  0.250000000  0.250000000
  O   0.250000000  0.250000000  0.250000000
  O   0.750000000  0.750000000  0.750000000
  O   0.750000000  0.750000000  0.250000000
  O   0.250000000  0.250000000  0.750000000
  O   0.750000000  0.250000000  0.750000000
  O   0.250000000  0.750000000  0.250000000
