Ce O 
 1.0000000000000000
     5.4674503477652081    0.0000000000000000    0.0000000000000003
    -0.0000000000000003    5.4674503477652081    0.0000000000000003
     0.0000000000000000    0.0000000000000000    5.4674503477652081
 Ce  O  
   4   8
Direct
  0.0000000000000000  0.0000000000000000  0.0000000000000000
 -0.0000000000000000  0.4999999999999999  0.4999999999999999
  0.4999999999999999  0.0000000000000000  0.4999999999999999
  0.4999999999999999  0.4999999999999999  0.0000000000000000
  0.2500000000000000  0.7500000000000000  0.7500000000000000
  0.7500000000000000  0.2500000000000000  0.2500000000000000
  0.2500000000000000  0.2500000000000000  0.2500000000000000
  0.7500000000000000  0.7500000000000000  0.7500000000000000
  0.7500000000000000  0.7500000000000000  0.2500000000000000
  0.2500000000000000  0.2500000000000000  0.7500000000000000
  0.7500000000000000  0.2500000000000000  0.7500000000000000
  0.2500000000000000  0.7500000000000000  0.2500000000000000
