# C

&CONTROL
  title = 'C',
  calculation = 'scf',
  outdir = '.',
  pseudo_dir = '.'
/
&SYSTEM
  ibrav = 0,
  nat   = 8,
  ntyp  = 1,
! c2x default
  ecutwfc = 10
/
&ELECTRONS
/

CELL_PARAMETERS angstrom
  3.5607451   0.0000000   0.0000000
 -0.0000000   3.5607451   0.0000000
  0.0000000   0.0000000   3.5607451

ATOMIC_SPECIES
  C    1.0   C.UPF

ATOMIC_POSITIONS crystal
  C   0.000000000  0.000000000  0.500000000
  C   0.250000000  0.250000000  0.750000000
  C  -0.000000000  0.500000000  0.000000000
  C   0.250000000  0.750000000  0.250000000
  C   0.500000000  0.000000000  0.000000000
  C   0.750000000  0.250000000  0.250000000
  C   0.500000000  0.500000000  0.500000000
  C   0.750000000  0.750000000  0.750000000
