C 
 1.0000000000000000
     3.5607451090903233    0.0000000000000000    0.0000000000000002
    -0.0000000000000002    3.5607451090903233    0.0000000000000002
     0.0000000000000000    0.0000000000000000    3.5607451090903233
 C  
   8
Direct
  0.0000000000000000  0.0000000000000000  0.4999999999999999
  0.2500000000000000  0.2500000000000000  0.7499999999999999
 -0.0000000000000000  0.4999999999999999  0.0000000000000000
  0.2500000000000000  0.7499999999999999  0.2500000000000000
  0.4999999999999999  0.0000000000000000  0.0000000000000000
  0.7499999999999999  0.2500000000000000  0.2500000000000000
  0.4999999999999999  0.4999999999999999  0.4999999999999999
  0.7499999999999999  0.7499999999999999  0.7499999999999999
