# Mg Al O

&CONTROL
  title = 'Mg Al O',
  calculation = 'scf',
  outdir = '.',
  pseudo_dir = '.'
/
&SYSTEM
  ibrav = 0,
  nat   = 56,
  ntyp  = 3,
! c2x default
  ecutwfc = 10
/
&ELECTRONS
/

CELL_PARAMETERS angstrom
  8.0803912   0.0000000   0.0000000
 -0.0000000   8.0803912   0.0000000
  0.0000000   0.0000000   8.0803912

ATOMIC_SPECIES
  Mg   1.0   Mg.UPF
  Al   1.0   Al.UPF
  O    1.0   O.UPF

ATOMIC_POSITIONS crystal
 Mg   0.250000000  0.750000000  0.750000000
 Mg   0.000000000  0.500000000  0.500000000
 Mg   0.250000000  0.250000000  0.250000000
 Mg   0.000000000  0.000000000  0.000000000
 Mg   0.750000000  0.750000000  0.250000000
 Mg   0.500000000  0.500000000  0.000000000
 Mg   0.750000000  0.250000000  0.750000000
 Mg   0.500000000  0.000000000  0.500000000
 Al   0.625000000  0.375000000  0.375000000
 Al   0.625000000  0.125000000  0.125000000
 Al   0.375000000  0.125000000  0.875000000
 Al   0.375000000  0.875000000  0.125000000
 Al   0.625000000  0.875000000  0.875000000
 Al   0.625000000  0.625000000  0.625000000
 Al   0.375000000  0.625000000  0.375000000
 Al   0.375000000  0.375000000  0.625000000
 Al   0.125000000  0.375000000  0.875000000
 Al   0.125000000  0.125000000  0.625000000
 Al   0.875000000  0.125000000  0.375000000
 Al   0.875000000  0.875000000  0.625000000
 Al   0.125000000  0.875000000  0.375000000
 Al   0.125000000  0.625000000  0.125000000
 Al   0.875000000  0.625000000  0.875000000
 Al   0.875000000  0.375000000  0.125000000
  O   0.861279340  0.361279340  0.361279340
  O   0.388720660  0.111279340  0.111279340
  O   0.611279340  0.111279340  0.888720660
  O   0.611279340  0.888720660  0.111279340
  O   0.638720660  0.138720660  0.361279340
  O   0.638720660  0.361279340  0.138720660
  O   0.388720660  0.888720660  0.888720660
  O   0.861279340  0.138720660  0.138720660
  O   0.861279340  0.861279340  0.861279340
  O   0.388720660  0.611279340  0.611279340
  O   0.611279340  0.611279340  0.388720660
  O   0.611279340  0.388720660  0.611279340
  O   0.638720660  0.638720660  0.861279340
  O   0.638720660  0.861279340  0.638720660
  O   0.388720660  0.388720660  0.388720660
  O   0.861279340  0.638720660  0.638720660
  O   0.361279340  0.361279340  0.861279340
  O   0.888720660  0.111279340  0.611279340
  O   0.111279340  0.111279340  0.388720660
  O   0.111279340  0.888720660  0.611279340
  O   0.138720660  0.138720660  0.861279340
  O   0.138720660  0.361279340  0.638720660
  O   0.888720660  0.888720660  0.388720660
  O   0.361279340  0.138720660  0.638720660
  O   0.361279340  0.861279340  0.361279340
  O   0.888720660  0.611279340  0.111279340
  O   0.111279340  0.611279340  0.888720660
  O   0.111279340  0.388720660  0.111279340
  O   0.138720660  0.638720660  0.361279340
  O   0.138720660  0.861279340  0.138720660
  O   0.888720660  0.388720660  0.888720660
  O   0.361279340  0.638720660  0.138720660
