Mg Al O 
 1.0000000000000000
     8.0803911888284503    0.0000000000000000    0.0000000000000005
    -0.0000000000000005    8.0803911888284503    0.0000000000000005
     0.0000000000000000    0.0000000000000000    8.0803911888284503
 Mg  Al  O  
   8  16  32
Direct
  0.2500000000000000  0.7500000000000000  0.7500000000000000
  0.0000000000000000  0.5000000000000000  0.5000000000000000
  0.2500000000000000  0.2500000000000000  0.2500000000000000
  0.0000000000000000  0.0000000000000000  0.0000000000000000
  0.7500000000000000  0.7500000000000000  0.2500000000000000
  0.5000000000000000  0.5000000000000000  0.0000000000000000
  0.7500000000000000  0.2500000000000000  0.7500000000000000
  0.5000000000000000  0.0000000000000000  0.5000000000000000
  0.6250000000000000  0.3750000000000000  0.3750000000000000
  0.6250000000000000  0.1250000000000000  0.1250000000000000
  0.3750000000000000  0.1250000000000000  0.8750000000000000
  0.3750000000000000  0.8750000000000000  0.1250000000000000
  0.6250000000000000  0.8750000000000000  0.8750000000000000
  0.6250000000000000  0.6250000000000000  0.6250000000000000
  0.3750000000000000  0.6250000000000000  0.3750000000000000
  0.3750000000000000  0.3750000000000000  0.6250000000000000
  0.1250000000000000  0.3750000000000000  0.8750000000000000
  0.1250000000000000  0.1250000000000000  0.6250000000000000
  0.8750000000000000  0.1250000000000000  0.3750000000000000
  0.8750000000000000  0.8750000000000000  0.6250000000000000
  0.1250000000000000  0.8750000000000000  0.3750000000000000
  0.1250000000000000  0.6250000000000000  0.1250000000000000
  0.8750000000000000  0.6250000000000000  0.8750000000000000
  0.8750000000000000  0.3750000000000000  0.1250000000000000
  0.8612793399999998  0.3612793399999999  0.3612793400000000
  0.3887206600000002  0.1112793399999998  0.1112793399999998
  0.6112793399999999  0.1112793399999998  0.8887206600000002
  0.6112793399999999  0.8887206599999999  0.1112793399999998
  0.6387206599999999  0.1387206600000001  0.3612793399999998
  0.6387206599999999  0.3612793399999999  0.1387206600000002
  0.3887206600000001  0.8887206599999999  0.8887206600000001
  0.8612793399999999  0.1387206600000002  0.1387206600000001
  0.8612793399999998  0.8612793399999999  0.8612793399999999
  0.3887206600000002  0.6112793399999998  0.6112793399999997
  0.6112793399999999  0.6112793399999998  0.3887206600000002
  0.6112793399999999  0.3887206600000002  0.6112793399999997
  0.6387206599999999  0.6387206599999999  0.8612793399999997
  0.6387206599999999  0.8612793399999999  0.6387206600000001
  0.3887206600000001  0.3887206600000002  0.3887206600000002
  0.8612793399999999  0.6387206600000001  0.6387206599999999
  0.3612793399999998  0.3612793399999999  0.8612793399999999
  0.8887206600000001  0.1112793399999998  0.6112793399999997
  0.1112793399999998  0.1112793399999998  0.3887206600000002
  0.1112793399999998  0.8887206599999999  0.6112793399999997
  0.1387206600000002  0.1387206600000001  0.8612793399999998
  0.1387206600000002  0.3612793399999999  0.6387206600000002
  0.8887206599999999  0.8887206599999999  0.3887206600000002
  0.3612793399999998  0.1387206600000002  0.6387206600000001
  0.3612793399999998  0.8612793399999999  0.3612793400000000
  0.8887206600000001  0.6112793399999998  0.1112793399999998
  0.1112793399999998  0.6112793399999998  0.8887206600000002
  0.1112793399999998  0.3887206600000002  0.1112793399999998
  0.1387206600000002  0.6387206599999999  0.3612793399999998
  0.1387206600000002  0.8612793399999999  0.1387206600000002
  0.8887206599999999  0.3887206600000002  0.8887206600000001
  0.3612793399999998  0.6387206600000001  0.1387206600000001
